NAME : lr207.903055.tour
COMMENT : Cost = 0_903055
COMMENT : Found by LKH [Keld Helsgaun] Fri Sep 15 17:42:01 2017
TYPE : TOUR
DIMENSION : 104
TOUR_SECTION
1
2
51
34
82
66
35
30
25
40
68
24
16
44
15
45
39
87
17
86
100
7
6
85
9
83
49
48
50
20
11
64
91
33
67
72
36
21
71
32
8
19
18
62
92
102
101
38
99
94
97
104
43
93
60
61
84
46
47
37
65
12
63
89
53
28
70
31
52
10
79
80
4
77
29
54
41
3
88
58
42
23
74
22
73
75
76
57
5
26
56
103
55
81
69
78
13
27
59
14
98
96
95
90
-1
EOF
